
Gurobi 9.0.2 (mac64, gurobi_cl) logging started Wed Aug 26 15:26:44 2020

Set parameter LogFile to value gurobi.log

Gurobi 9.0.2 (mac64, gurobi_cl) logging started Sun Aug 30 22:08:51 2020

Set parameter LogFile to value gurobi.log
